###
# Box and units  (use LJ units and periodic boundaries)
###

units           lj
atom_style      bond
dimension	3
boundary	p p p
newton 		on

lattice		diamond 0.5
region		box block 0 20 0 20 0 20
create_box	2 box bond/types 1 extra/bond/per/atom 2

###################################################################
# Create Atoms in empty space
#
region         lower block 0 20 0 20 0 5
create_atoms   1 region lower
region         upper block 0 20 0 20 15 20
create_atoms   1 region upper

###################################################################
# Create Polymers
#
variable N       equal 39   # Number of beads per polymer
variable Ny_val  equal 30   # Number of polymers placed in y
variable Ny       loop ${Ny_val}
variable Nz       loop 5    # Number of polymers placed in z
variable dbead   equal 0.3
variable step    equal 1    # Step size for the random walk

# Initialise the first bead
variable x0 equal 1.0
variable y0 equal 1.0
variable z0 equal 6.0

# Create the remaining beads
label loop_z
label loop_y
label loop_bead
if "${step} > ${N}" then "jump SELF end_inner"
    variable x equal ${x0} + ${dbead}
    variable y equal ${y0} + 1.5*${Ny}
    variable z equal ${z0} + 1.5*${Nz}
    create_atoms 2 single ${x} ${y} ${z}
    variable x0 equal ${x}
    variable step equal ${step} + 1
jump SELF loop_bead
label end_inner
variable x0 equal 1.0
variable y0 equal 1.0
variable step equal 1
next Ny
jump SELF loop_y
variable x0 equal 1.0
variable y0 equal 1.0
variable z0 equal 6.0
variable step equal 1
variable Ny loop ${Ny_val}
next Nz
jump SELF loop_z

###################################################################
# Create groups, finish setup, etc
#

group           atoms type 1
group           polys type 2
mass * 1.0
group		subA region lower
group		subB region upper
set group	subA vx 0.0 vy 0.0 vz 0.5
set group	subB vx -0.01 vy 0.02 vz -0.5

velocity 	all create 0.01 87287 loop geom
# If ellipsoid
#set             all mass 1.0
#set             all shape 1.0 0.4 0.8
#set             all quat/random 29898
#set group 	all angmom 0.0 0.0 0.0

neighbor        1.5 bin
neigh_modify    delay 0 every 100 check yes

###################################################################
# Pair interaction between non-bonded atoms
#
pair_style      lj/cut 1.12246152962189
pair_coeff      * * 1.0 1.0
pair_modify     shift yes

###################################################################
# Pair interaction between bonded atoms
#
create_bonds many polys polys 1 1.5 2.5
bond_style harmonic
bond_coeff 1 10.0 1.5
special_bonds lj 0.0 1.0 1.0

###################################################

comm_modify cutoff 6

###
# Set up fixes
###

fix 1 all   nve   ###NVE ensemble
#fix 2 all   langevin   1.0 1.0   2.0   424242   ###Langevin integrator Tstart Tstop 1/friction rndseed

compute ekin all ke
compute epot all pe
variable ekin equal c_ekin
variable epot equal c_epot
variable etot equal c_ekin+c_epot

fix 5 all print 5000 "$(step)  ekin = ${ekin} | epot = ${epot} | etot = ${etot}" screen yes

dump myDump all atom 5000 dump.polymer

##### Sample thermodynamic info  (temperature, energy, pressure, etc.) #####
#thermo 10000
#thermo_style   custom   step  temp  epair  emol  press pxx pyy pzz  vol
############################################################################

timestep 0.0001

run 50000

write_data data_out.* nocoeff
 
