variable number	equal 2
variable ofreq	equal 1
variable efreq	equal 1
variable T      equal 0.1

units lj

dimension 3

newton on

boundary  p p p

atom_style hybrid bond ellipsoid oxdna
atom_modify sort 0 1.0

# Pair interactions require lists of neighbours to be calculated
neighbor 2.0 bin
neigh_modify every 1 delay 0 check yes

read_data data.duplex2

set atom * mass 3.1575

group all type 1 4

# oxDNA bond interactions - FENE backbone
bond_style hybrid oxdna3/fene
bond_coeff * oxdna3/fene oxdna3_lj.cgdna
special_bonds lj 0 1 1

# oxDNA pair interactions
pair_style oxdna2/excv
pair_coeff * * oxdna2_lj.cgdna

# NVE ensemble
fix 1 all nve/asphere
#fix 2 all langevin ${T} ${T} 2.5 457145 angmom 10

timestep 1e-5

comm_modify cutoff 3.8

compute quat all property/atom quatw quati quatj quatk

compute erot all erotate/asphere
compute ekin all ke
compute epot all pe
variable erot equal c_erot
variable ekin equal c_ekin
variable epot equal c_epot
variable etot equal c_erot+c_ekin+c_epot

compute ebond all bond
compute eexcv all pair oxdna2/excv
variable ebond equal c_ebond[1]
variable eexcv equal c_eexcv

fix 5 all print ${efreq} "$(step)  ekin = ${ekin} |  erot = ${erot} | epot = ${epot} | ebond = ${ebond} | eexcv = ${eexcv} | etot = ${etot}" screen yes

dump out all custom ${ofreq} out.${number}.lammpstrj id mol type x y z ix iy iz vx vy vz c_quat[1] c_quat[2] c_quat[3] c_quat[4] angmomx angmomy angmomz
dump_modify out sort id
dump_modify out format line "%d %d %d  %22.15le %22.15le %22.15le  %d %d %d  %22.15le %22.15le %22.15le  %22.15le %22.15le %22.15le %22.15le  %22.15le %22.15le %22.15le"

run 0

